words_easy_train/words_59_SAT.qaiger
aag 33 16 0 1 17
6
20
26
24
4
22
30
32
10
8
18
14
12
16
28
2
67
34 32 16
36 20 4
38 22 6
40 18 2
42 41 39
44 42 37
46 24 8
48 46 45
50 26 10
52 30 14
54 28 12
56 55 53
58 56 51
60 58 49
62 61 34
64 60 35
66 65 63
i0 2 y2[2]
i1 1 x1[1]
i2 1 x1[4]
i3 1 x1[3]
i4 2 y2[1]
i5 1 x1[2]
i6 1 x1[6]
i7 1 x1[7]
i8 2 y2[4]
i9 2 y2[3]
i10 1 x1[0]
i11 2 y2[6]
i12 2 y2[5]
i13 2 y2[7]
i14 1 x1[5]
i15 2 y2[0]
o0 bv[0]
c
simplified
  >=
    << 3
      1
    and
      2 y2
      1 x1
