words_easy_train/words_59_SAT.qaiger.qdimacs
p cnf 33 52
a 9 10 11 12 13 14 15 16 0
e 1 2 3 4 5 6 7 8 17 18 19 20 21 22 23 24 25 26 27 28 29 30 31 32 33 0
-16 -8 17 0
16 -17 0
8 -17 0
-10 -2 18 0
10 -18 0
2 -18 0
-11 -3 19 0
11 -19 0
3 -19 0
-9 -1 20 0
9 -20 0
1 -20 0
20 19 21 0
-20 -21 0
-19 -21 0
-21 18 22 0
21 -22 0
-18 -22 0
-12 -4 23 0
12 -23 0
4 -23 0
-23 22 24 0
23 -24 0
-22 -24 0
-13 -5 25 0
13 -25 0
5 -25 0
-15 -7 26 0
15 -26 0
7 -26 0
-14 -6 27 0
14 -27 0
6 -27 0
27 26 28 0
-27 -28 0
-26 -28 0
-28 25 29 0
28 -29 0
-25 -29 0
-29 24 30 0
29 -30 0
-24 -30 0
30 -17 31 0
-30 -31 0
17 -31 0
-30 17 32 0
30 -32 0
-17 -32 0
32 31 33 0
-32 -33 0
-31 -33 0
-33 0
